242427
160 136 41 40 71 125 51 70 20 183 133 19 83 171 177 162 82 68 158 97 86 187 105 2 78 96 60 99 22 54 55 134 3 103 157 180 21 64 11 164 149 141 126 4 90 72 45 140 111 32 197 107 5 62 118 27 186 95 148 113 127 44 150 9 25 8 39 37 18 121 52 88 128 185 92 12 14 24 76 179 87 161 50 147 119 192 31 28 163 77 146 167 131 65 80 94 124 130 74 172 26 123 196 85 138 23 46 137 15 199 91 116 169 174 89 0 139 73 170 59 7 66 117 75 143 6 166 100 115 57 168 47 189 56 182 34 155 1 67 16 152 190 81 178 144 102 145 79 198 156 84 109 114 175 30 63 98 142 10 61 53 135 184 191 38 101 49 194 35 122 42 17 195 154 188 193 120 112 48 13 106 151 165 29 36 93 33 159 104 58 129 173 132 176 110 153 69 108 43 181 
